37
30462
40471
42890
44358
47646
51360
59280
61326
73228
74090
74116
74572
78674
83664
86544
89811
93794
101136
109680
113068
129269
137592
138649
147122
148924
149575
155862
166612
170064
170688
171624
184950
195602
199372
205686
240821
243003
